c Reduced graph for 2-Insertions_5 generated by Cyril Grelier
p edge 597 3936
e 1 5
e 1 18
e 1 19
e 1 20
e 1 345
e 1 427
e 1 428
e 1 429
e 1 430
e 1 431
e 1 432
e 1 433
e 1 434
e 1 435
e 1 436
e 1 437
e 1 438
e 1 439
e 1 440
e 1 441
e 1 442
e 1 443
e 1 444
e 1 445
e 1 446
e 1 447
e 1 448
e 1 449
e 1 450
e 1 451
e 1 452
e 1 453
e 1 454
e 1 455
e 1 456
e 1 457
e 1 458
e 1 459
e 1 460
e 1 461
e 1 462
e 1 463
e 1 464
e 1 465
e 1 466
e 1 467
e 1 468
e 1 469
e 1 470
e 1 471
e 1 472
e 1 473
e 1 474
e 1 475
e 1 476
e 1 477
e 1 478
e 1 479
e 1 480
e 1 481
e 1 482
e 1 483
e 1 484
e 1 485
e 1 486
e 1 487
e 1 488
e 1 489
e 1 490
e 1 491
e 1 492
e 1 493
e 1 494
e 1 495
e 1 496
e 1 497
e 1 498
e 1 499
e 1 500
e 1 501
e 1 502
e 1 503
e 1 504
e 1 505
e 1 506
e 1 507
e 1 535
e 1 536
e 1 537
e 1 538
e 1 539
e 1 540
e 1 541
e 1 542
e 1 543
e 1 544
e 1 545
e 1 546
e 1 547
e 1 548
e 1 549
e 1 550
e 1 551
e 1 552
e 1 553
e 1 554
e 1 555
e 1 556
e 1 557
e 1 558
e 1 559
e 1 560
e 1 561
e 1 562
e 1 563
e 1 564
e 1 565
e 1 566
e 1 567
e 1 568
e 1 569
e 1 570
e 1 571
e 1 572
e 1 573
e 1 574
e 1 575
e 1 576
e 1 577
e 1 578
e 1 579
e 1 580
e 1 581
e 1 582
e 1 583
e 1 584
e 1 585
e 1 586
e 1 587
e 1 588
e 1 589
e 1 590
e 1 591
e 1 592
e 1 593
e 1 594
e 1 595
e 1 596
e 1 597
e 2 15
e 2 16
e 2 346
e 2 347
e 2 348
e 2 349
e 2 350
e 2 351
e 2 352
e 2 353
e 2 354
e 2 355
e 2 356
e 2 357
e 2 358
e 2 359
e 2 360
e 2 361
e 2 362
e 2 363
e 2 364
e 2 365
e 2 366
e 2 367
e 2 368
e 2 369
e 2 370
e 2 371
e 2 372
e 2 373
e 2 374
e 2 375
e 2 376
e 2 377
e 2 378
e 2 379
e 2 380
e 2 381
e 2 382
e 2 383
e 2 384
e 2 385
e 2 386
e 2 387
e 2 388
e 2 389
e 2 390
e 2 391
e 2 392
e 2 393
e 2 394
e 2 395
e 2 396
e 2 397
e 2 398
e 2 399
e 2 508
e 2 509
e 2 510
e 2 511
e 2 512
e 2 513
e 2 514
e 2 515
e 2 516
e 2 517
e 2 518
e 2 519
e 2 520
e 2 521
e 2 522
e 2 523
e 2 524
e 2 525
e 3 15
e 3 17
e 3 346
e 3 347
e 3 348
e 3 349
e 3 350
e 3 351
e 3 352
e 3 353
e 3 354
e 3 355
e 3 356
e 3 357
e 3 358
e 3 359
e 3 360
e 3 361
e 3 362
e 3 363
e 3 364
e 3 365
e 3 366
e 3 367
e 3 368
e 3 369
e 3 370
e 3 371
e 3 372
e 3 400
e 3 401
e 3 402
e 3 403
e 3 404
e 3 405
e 3 406
e 3 407
e 3 408
e 3 409
e 3 410
e 3 411
e 3 412
e 3 413
e 3 414
e 3 415
e 3 416
e 3 417
e 3 418
e 3 419
e 3 420
e 3 421
e 3 422
e 3 423
e 3 424
e 3 425
e 3 426
e 3 508
e 3 509
e 3 510
e 3 511
e 3 512
e 3 513
e 3 514
e 3 515
e 3 516
e 3 526
e 3 527
e 3 528
e 3 529
e 3 530
e 3 531
e 3 532
e 3 533
e 3 534
e 4 16
e 4 345
e 4 373
e 4 374
e 4 375
e 4 376
e 4 377
e 4 378
e 4 379
e 4 380
e 4 381
e 4 382
e 4 383
e 4 384
e 4 385
e 4 386
e 4 387
e 4 388
e 4 389
e 4 390
e 4 391
e 4 392
e 4 393
e 4 394
e 4 395
e 4 396
e 4 397
e 4 398
e 4 399
e 4 517
e 4 518
e 4 519
e 4 520
e 4 521
e 4 522
e 4 523
e 4 524
e 4 525
e 4 562
e 4 563
e 4 564
e 4 565
e 4 566
e 4 567
e 4 568
e 4 569
e 4 570
e 4 571
e 4 572
e 4 573
e 4 574
e 4 575
e 4 576
e 4 577
e 4 578
e 4 579
e 4 580
e 4 581
e 4 582
e 4 583
e 4 584
e 4 585
e 4 586
e 4 587
e 4 588
e 4 589
e 4 590
e 4 591
e 4 592
e 4 593
e 4 594
e 4 595
e 4 596
e 4 597
e 5 17
e 5 400
e 5 401
e 5 402
e 5 403
e 5 404
e 5 405
e 5 406
e 5 407
e 5 408
e 5 409
e 5 410
e 5 411
e 5 412
e 5 413
e 5 414
e 5 415
e 5 416
e 5 417
e 5 418
e 5 419
e 5 420
e 5 421
e 5 422
e 5 423
e 5 424
e 5 425
e 5 426
e 5 526
e 5 527
e 5 528
e 5 529
e 5 530
e 5 531
e 5 532
e 5 533
e 5 534
e 6 264
e 6 265
e 6 266
e 6 267
e 6 268
e 6 269
e 6 270
e 6 271
e 6 272
e 6 273
e 6 274
e 6 275
e 6 276
e 6 277
e 6 278
e 6 279
e 6 280
e 6 281
e 6 291
e 6 292
e 6 293
e 6 294
e 6 295
e 6 296
e 6 297
e 6 298
e 6 299
e 6 300
e 6 301
e 6 302
e 6 303
e 6 304
e 6 305
e 6 306
e 6 307
e 6 308
e 7 264
e 7 265
e 7 266
e 7 267
e 7 268
e 7 269
e 7 270
e 7 271
e 7 272
e 7 282
e 7 283
e 7 284
e 7 285
e 7 286
e 7 287
e 7 288
e 7 289
e 7 290
e 7 291
e 7 292
e 7 293
e 7 294
e 7 295
e 7 296
e 7 297
e 7 298
e 7 299
e 7 309
e 7 310
e 7 311
e 7 312
e 7 313
e 7 314
e 7 315
e 7 316
e 7 317
e 8 273
e 8 274
e 8 275
e 8 276
e 8 277
e 8 278
e 8 279
e 8 280
e 8 281
e 8 300
e 8 301
e 8 302
e 8 303
e 8 304
e 8 305
e 8 306
e 8 307
e 8 308
e 8 508
e 8 509
e 8 510
e 8 511
e 8 512
e 8 513
e 8 514
e 8 515
e 8 516
e 8 517
e 8 518
e 8 519
e 8 520
e 8 521
e 8 522
e 8 523
e 8 524
e 8 525
e 9 264
e 9 265
e 9 266
e 9 267
e 9 268
e 9 269
e 9 270
e 9 271
e 9 272
e 9 273
e 9 274
e 9 275
e 9 276
e 9 277
e 9 278
e 9 279
e 9 280
e 9 281
e 9 318
e 9 319
e 9 320
e 9 321
e 9 322
e 9 323
e 9 324
e 9 325
e 9 326
e 9 327
e 9 328
e 9 329
e 9 330
e 9 331
e 9 332
e 9 333
e 9 334
e 9 335
e 10 264
e 10 265
e 10 266
e 10 267
e 10 268
e 10 269
e 10 270
e 10 271
e 10 272
e 10 282
e 10 283
e 10 284
e 10 285
e 10 286
e 10 287
e 10 288
e 10 289
e 10 290
e 10 318
e 10 319
e 10 320
e 10 321
e 10 322
e 10 323
e 10 324
e 10 325
e 10 326
e 10 336
e 10 337
e 10 338
e 10 339
e 10 340
e 10 341
e 10 342
e 10 343
e 10 344
e 11 273
e 11 274
e 11 275
e 11 276
e 11 277
e 11 278
e 11 279
e 11 280
e 11 281
e 11 327
e 11 328
e 11 329
e 11 330
e 11 331
e 11 332
e 11 333
e 11 334
e 11 335
e 11 508
e 11 509
e 11 510
e 11 511
e 11 512
e 11 513
e 11 514
e 11 515
e 11 516
e 11 526
e 11 527
e 11 528
e 11 529
e 11 530
e 11 531
e 11 532
e 11 533
e 11 534
e 12 291
e 12 292
e 12 293
e 12 294
e 12 295
e 12 296
e 12 297
e 12 298
e 12 299
e 12 300
e 12 301
e 12 302
e 12 303
e 12 304
e 12 305
e 12 306
e 12 307
e 12 308
e 12 535
e 12 536
e 12 537
e 12 538
e 12 539
e 12 540
e 12 541
e 12 542
e 12 543
e 12 544
e 12 545
e 12 546
e 12 547
e 12 548
e 12 549
e 12 550
e 12 551
e 12 552
e 13 291
e 13 292
e 13 293
e 13 294
e 13 295
e 13 296
e 13 297
e 13 298
e 13 299
e 13 309
e 13 310
e 13 311
e 13 312
e 13 313
e 13 314
e 13 315
e 13 316
e 13 317
e 13 535
e 13 536
e 13 537
e 13 538
e 13 539
e 13 540
e 13 541
e 13 542
e 13 543
e 13 553
e 13 554
e 13 555
e 13 556
e 13 557
e 13 558
e 13 559
e 13 560
e 13 561
e 14 300
e 14 301
e 14 302
e 14 303
e 14 304
e 14 305
e 14 306
e 14 307
e 14 308
e 14 517
e 14 518
e 14 519
e 14 520
e 14 521
e 14 522
e 14 523
e 14 524
e 14 525
e 14 544
e 14 545
e 14 546
e 14 547
e 14 548
e 14 549
e 14 550
e 14 551
e 14 552
e 14 589
e 14 590
e 14 591
e 14 592
e 14 593
e 14 594
e 14 595
e 14 596
e 14 597
e 15 282
e 15 283
e 15 284
e 15 285
e 15 286
e 15 287
e 15 288
e 15 289
e 15 290
e 15 309
e 15 310
e 15 311
e 15 312
e 15 313
e 15 314
e 15 315
e 15 316
e 15 317
e 16 282
e 16 283
e 16 284
e 16 285
e 16 286
e 16 287
e 16 288
e 16 289
e 16 290
e 16 336
e 16 337
e 16 338
e 16 339
e 16 340
e 16 341
e 16 342
e 16 343
e 16 344
e 17 309
e 17 310
e 17 311
e 17 312
e 17 313
e 17 314
e 17 315
e 17 316
e 17 317
e 17 553
e 17 554
e 17 555
e 17 556
e 17 557
e 17 558
e 17 559
e 17 560
e 17 561
e 18 318
e 18 319
e 18 320
e 18 321
e 18 322
e 18 323
e 18 324
e 18 325
e 18 326
e 18 327
e 18 328
e 18 329
e 18 330
e 18 331
e 18 332
e 18 333
e 18 334
e 18 335
e 19 318
e 19 319
e 19 320
e 19 321
e 19 322
e 19 323
e 19 324
e 19 325
e 19 326
e 19 336
e 19 337
e 19 338
e 19 339
e 19 340
e 19 341
e 19 342
e 19 343
e 19 344
e 20 327
e 20 328
e 20 329
e 20 330
e 20 331
e 20 332
e 20 333
e 20 334
e 20 335
e 20 526
e 20 527
e 20 528
e 20 529
e 20 530
e 20 531
e 20 532
e 20 533
e 20 534
e 21 22
e 21 24
e 21 31
e 21 33
e 21 49
e 21 51
e 21 58
e 21 60
e 21 103
e 21 105
e 21 112
e 21 114
e 21 130
e 21 132
e 21 139
e 21 141
e 22 23
e 22 30
e 22 32
e 22 48
e 22 50
e 22 57
e 22 59
e 22 102
e 22 104
e 22 111
e 22 113
e 22 129
e 22 131
e 22 138
e 22 140
e 23 26
e 23 31
e 23 35
e 23 49
e 23 53
e 23 58
e 23 62
e 23 103
e 23 107
e 23 112
e 23 116
e 23 130
e 23 134
e 23 139
e 23 143
e 24 25
e 24 30
e 24 34
e 24 48
e 24 52
e 24 57
e 24 61
e 24 102
e 24 106
e 24 111
e 24 115
e 24 129
e 24 133
e 24 138
e 24 142
e 25 28
e 25 33
e 25 37
e 25 51
e 25 55
e 25 60
e 25 64
e 25 105
e 25 109
e 25 114
e 25 118
e 25 132
e 25 136
e 25 141
e 25 145
e 26 27
e 26 32
e 26 36
e 26 50
e 26 54
e 26 59
e 26 63
e 26 104
e 26 108
e 26 113
e 26 117
e 26 131
e 26 135
e 26 140
e 26 144
e 27 29
e 27 35
e 27 38
e 27 53
e 27 56
e 27 62
e 27 65
e 27 107
e 27 110
e 27 116
e 27 119
e 27 134
e 27 137
e 27 143
e 27 146
e 28 29
e 28 34
e 28 38
e 28 52
e 28 56
e 28 61
e 28 65
e 28 106
e 28 110
e 28 115
e 28 119
e 28 133
e 28 137
e 28 142
e 28 146
e 29 36
e 29 37
e 29 54
e 29 55
e 29 63
e 29 64
e 29 108
e 29 109
e 29 117
e 29 118
e 29 135
e 29 136
e 29 144
e 29 145
e 30 40
e 30 42
e 30 49
e 30 51
e 30 67
e 30 69
e 30 103
e 30 105
e 30 121
e 30 123
e 30 130
e 30 132
e 30 148
e 30 150
e 31 39
e 31 41
e 31 48
e 31 50
e 31 66
e 31 68
e 31 102
e 31 104
e 31 120
e 31 122
e 31 129
e 31 131
e 31 147
e 31 149
e 32 40
e 32 44
e 32 49
e 32 53
e 32 67
e 32 71
e 32 103
e 32 107
e 32 121
e 32 125
e 32 130
e 32 134
e 32 148
e 32 152
e 33 39
e 33 43
e 33 48
e 33 52
e 33 66
e 33 70
e 33 102
e 33 106
e 33 120
e 33 124
e 33 129
e 33 133
e 33 147
e 33 151
e 34 42
e 34 46
e 34 51
e 34 55
e 34 69
e 34 73
e 34 105
e 34 109
e 34 123
e 34 127
e 34 132
e 34 136
e 34 150
e 34 154
e 35 41
e 35 45
e 35 50
e 35 54
e 35 68
e 35 72
e 35 104
e 35 108
e 35 122
e 35 126
e 35 131
e 35 135
e 35 149
e 35 153
e 36 44
e 36 47
e 36 53
e 36 56
e 36 71
e 36 74
e 36 107
e 36 110
e 36 125
e 36 128
e 36 134
e 36 137
e 36 152
e 36 155
e 37 43
e 37 47
e 37 52
e 37 56
e 37 70
e 37 74
e 37 106
e 37 110
e 37 124
e 37 128
e 37 133
e 37 137
e 37 151
e 37 155
e 38 45
e 38 46
e 38 54
e 38 55
e 38 72
e 38 73
e 38 108
e 38 109
e 38 126
e 38 127
e 38 135
e 38 136
e 38 153
e 38 154
e 39 58
e 39 60
e 39 112
e 39 114
e 39 139
e 39 141
e 39 265
e 39 267
e 39 274
e 39 276
e 39 292
e 39 294
e 39 301
e 39 303
e 40 57
e 40 59
e 40 111
e 40 113
e 40 138
e 40 140
e 40 264
e 40 266
e 40 273
e 40 275
e 40 291
e 40 293
e 40 300
e 40 302
e 41 58
e 41 62
e 41 112
e 41 116
e 41 139
e 41 143
e 41 265
e 41 269
e 41 274
e 41 278
e 41 292
e 41 296
e 41 301
e 41 305
e 42 57
e 42 61
e 42 111
e 42 115
e 42 138
e 42 142
e 42 264
e 42 268
e 42 273
e 42 277
e 42 291
e 42 295
e 42 300
e 42 304
e 43 60
e 43 64
e 43 114
e 43 118
e 43 141
e 43 145
e 43 267
e 43 271
e 43 276
e 43 280
e 43 294
e 43 298
e 43 303
e 43 307
e 44 59
e 44 63
e 44 113
e 44 117
e 44 140
e 44 144
e 44 266
e 44 270
e 44 275
e 44 279
e 44 293
e 44 297
e 44 302
e 44 306
e 45 62
e 45 65
e 45 116
e 45 119
e 45 143
e 45 146
e 45 269
e 45 272
e 45 278
e 45 281
e 45 296
e 45 299
e 45 305
e 45 308
e 46 61
e 46 65
e 46 115
e 46 119
e 46 142
e 46 146
e 46 268
e 46 272
e 46 277
e 46 281
e 46 295
e 46 299
e 46 304
e 46 308
e 47 63
e 47 64
e 47 117
e 47 118
e 47 144
e 47 145
e 47 270
e 47 271
e 47 279
e 47 280
e 47 297
e 47 298
e 47 306
e 47 307
e 48 76
e 48 78
e 48 85
e 48 87
e 48 103
e 48 105
e 48 112
e 48 114
e 48 157
e 48 159
e 48 166
e 48 168
e 49 75
e 49 77
e 49 84
e 49 86
e 49 102
e 49 104
e 49 111
e 49 113
e 49 156
e 49 158
e 49 165
e 49 167
e 50 76
e 50 80
e 50 85
e 50 89
e 50 103
e 50 107
e 50 112
e 50 116
e 50 157
e 50 161
e 50 166
e 50 170
e 51 75
e 51 79
e 51 84
e 51 88
e 51 102
e 51 106
e 51 111
e 51 115
e 51 156
e 51 160
e 51 165
e 51 169
e 52 78
e 52 82
e 52 87
e 52 91
e 52 105
e 52 109
e 52 114
e 52 118
e 52 159
e 52 163
e 52 168
e 52 172
e 53 77
e 53 81
e 53 86
e 53 90
e 53 104
e 53 108
e 53 113
e 53 117
e 53 158
e 53 162
e 53 167
e 53 171
e 54 80
e 54 83
e 54 89
e 54 92
e 54 107
e 54 110
e 54 116
e 54 119
e 54 161
e 54 164
e 54 170
e 54 173
e 55 79
e 55 83
e 55 88
e 55 92
e 55 106
e 55 110
e 55 115
e 55 119
e 55 160
e 55 164
e 55 169
e 55 173
e 56 81
e 56 82
e 56 90
e 56 91
e 56 108
e 56 109
e 56 117
e 56 118
e 56 162
e 56 163
e 56 171
e 56 172
e 57 76
e 57 78
e 57 94
e 57 96
e 57 103
e 57 105
e 57 121
e 57 123
e 57 157
e 57 159
e 57 175
e 57 177
e 58 75
e 58 77
e 58 93
e 58 95
e 58 102
e 58 104
e 58 120
e 58 122
e 58 156
e 58 158
e 58 174
e 58 176
e 59 76
e 59 80
e 59 94
e 59 98
e 59 103
e 59 107
e 59 121
e 59 125
e 59 157
e 59 161
e 59 175
e 59 179
e 60 75
e 60 79
e 60 93
e 60 97
e 60 102
e 60 106
e 60 120
e 60 124
e 60 156
e 60 160
e 60 174
e 60 178
e 61 78
e 61 82
e 61 96
e 61 100
e 61 105
e 61 109
e 61 123
e 61 127
e 61 159
e 61 163
e 61 177
e 61 181
e 62 77
e 62 81
e 62 95
e 62 99
e 62 104
e 62 108
e 62 122
e 62 126
e 62 158
e 62 162
e 62 176
e 62 180
e 63 80
e 63 83
e 63 98
e 63 101
e 63 107
e 63 110
e 63 125
e 63 128
e 63 161
e 63 164
e 63 179
e 63 182
e 64 79
e 64 83
e 64 97
e 64 101
e 64 106
e 64 110
e 64 124
e 64 128
e 64 160
e 64 164
e 64 178
e 64 182
e 65 81
e 65 82
e 65 99
e 65 100
e 65 108
e 65 109
e 65 126
e 65 127
e 65 162
e 65 163
e 65 180
e 65 181
e 66 85
e 66 87
e 66 112
e 66 114
e 66 166
e 66 168
e 66 265
e 66 267
e 66 283
e 66 285
e 66 292
e 66 294
e 66 310
e 66 312
e 67 84
e 67 86
e 67 111
e 67 113
e 67 165
e 67 167
e 67 264
e 67 266
e 67 282
e 67 284
e 67 291
e 67 293
e 67 309
e 67 311
e 68 85
e 68 89
e 68 112
e 68 116
e 68 166
e 68 170
e 68 265
e 68 269
e 68 283
e 68 287
e 68 292
e 68 296
e 68 310
e 68 314
e 69 84
e 69 88
e 69 111
e 69 115
e 69 165
e 69 169
e 69 264
e 69 268
e 69 282
e 69 286
e 69 291
e 69 295
e 69 309
e 69 313
e 70 87
e 70 91
e 70 114
e 70 118
e 70 168
e 70 172
e 70 267
e 70 271
e 70 285
e 70 289
e 70 294
e 70 298
e 70 312
e 70 316
e 71 86
e 71 90
e 71 113
e 71 117
e 71 167
e 71 171
e 71 266
e 71 270
e 71 284
e 71 288
e 71 293
e 71 297
e 71 311
e 71 315
e 72 89
e 72 92
e 72 116
e 72 119
e 72 170
e 72 173
e 72 269
e 72 272
e 72 287
e 72 290
e 72 296
e 72 299
e 72 314
e 72 317
e 73 88
e 73 92
e 73 115
e 73 119
e 73 169
e 73 173
e 73 268
e 73 272
e 73 286
e 73 290
e 73 295
e 73 299
e 73 313
e 73 317
e 74 90
e 74 91
e 74 117
e 74 118
e 74 171
e 74 172
e 74 270
e 74 271
e 74 288
e 74 289
e 74 297
e 74 298
e 74 315
e 74 316
e 75 130
e 75 132
e 75 139
e 75 141
e 75 347
e 75 349
e 75 356
e 75 358
e 75 374
e 75 376
e 75 383
e 75 385
e 76 129
e 76 131
e 76 138
e 76 140
e 76 346
e 76 348
e 76 355
e 76 357
e 76 373
e 76 375
e 76 382
e 76 384
e 77 130
e 77 134
e 77 139
e 77 143
e 77 347
e 77 351
e 77 356
e 77 360
e 77 374
e 77 378
e 77 383
e 77 387
e 78 129
e 78 133
e 78 138
e 78 142
e 78 346
e 78 350
e 78 355
e 78 359
e 78 373
e 78 377
e 78 382
e 78 386
e 79 132
e 79 136
e 79 141
e 79 145
e 79 349
e 79 353
e 79 358
e 79 362
e 79 376
e 79 380
e 79 385
e 79 389
e 80 131
e 80 135
e 80 140
e 80 144
e 80 348
e 80 352
e 80 357
e 80 361
e 80 375
e 80 379
e 80 384
e 80 388
e 81 134
e 81 137
e 81 143
e 81 146
e 81 351
e 81 354
e 81 360
e 81 363
e 81 378
e 81 381
e 81 387
e 81 390
e 82 133
e 82 137
e 82 142
e 82 146
e 82 350
e 82 354
e 82 359
e 82 363
e 82 377
e 82 381
e 82 386
e 82 390
e 83 135
e 83 136
e 83 144
e 83 145
e 83 352
e 83 353
e 83 361
e 83 362
e 83 379
e 83 380
e 83 388
e 83 389
e 84 130
e 84 132
e 84 148
e 84 150
e 84 347
e 84 349
e 84 365
e 84 367
e 84 374
e 84 376
e 84 392
e 84 394
e 85 129
e 85 131
e 85 147
e 85 149
e 85 346
e 85 348
e 85 364
e 85 366
e 85 373
e 85 375
e 85 391
e 85 393
e 86 130
e 86 134
e 86 148
e 86 152
e 86 347
e 86 351
e 86 365
e 86 369
e 86 374
e 86 378
e 86 392
e 86 396
e 87 129
e 87 133
e 87 147
e 87 151
e 87 346
e 87 350
e 87 364
e 87 368
e 87 373
e 87 377
e 87 391
e 87 395
e 88 132
e 88 136
e 88 150
e 88 154
e 88 349
e 88 353
e 88 367
e 88 371
e 88 376
e 88 380
e 88 394
e 88 398
e 89 131
e 89 135
e 89 149
e 89 153
e 89 348
e 89 352
e 89 366
e 89 370
e 89 375
e 89 379
e 89 393
e 89 397
e 90 134
e 90 137
e 90 152
e 90 155
e 90 351
e 90 354
e 90 369
e 90 372
e 90 378
e 90 381
e 90 396
e 90 399
e 91 133
e 91 137
e 91 151
e 91 155
e 91 350
e 91 354
e 91 368
e 91 372
e 91 377
e 91 381
e 91 395
e 91 399
e 92 135
e 92 136
e 92 153
e 92 154
e 92 352
e 92 353
e 92 370
e 92 371
e 92 379
e 92 380
e 92 397
e 92 398
e 93 139
e 93 141
e 93 274
e 93 276
e 93 301
e 93 303
e 93 356
e 93 358
e 93 383
e 93 385
e 93 509
e 93 511
e 93 518
e 93 520
e 94 138
e 94 140
e 94 273
e 94 275
e 94 300
e 94 302
e 94 355
e 94 357
e 94 382
e 94 384
e 94 508
e 94 510
e 94 517
e 94 519
e 95 139
e 95 143
e 95 274
e 95 278
e 95 301
e 95 305
e 95 356
e 95 360
e 95 383
e 95 387
e 95 509
e 95 513
e 95 518
e 95 522
e 96 138
e 96 142
e 96 273
e 96 277
e 96 300
e 96 304
e 96 355
e 96 359
e 96 382
e 96 386
e 96 508
e 96 512
e 96 517
e 96 521
e 97 141
e 97 145
e 97 276
e 97 280
e 97 303
e 97 307
e 97 358
e 97 362
e 97 385
e 97 389
e 97 511
e 97 515
e 97 520
e 97 524
e 98 140
e 98 144
e 98 275
e 98 279
e 98 302
e 98 306
e 98 357
e 98 361
e 98 384
e 98 388
e 98 510
e 98 514
e 98 519
e 98 523
e 99 143
e 99 146
e 99 278
e 99 281
e 99 305
e 99 308
e 99 360
e 99 363
e 99 387
e 99 390
e 99 513
e 99 516
e 99 522
e 99 525
e 100 142
e 100 146
e 100 277
e 100 281
e 100 304
e 100 308
e 100 359
e 100 363
e 100 386
e 100 390
e 100 512
e 100 516
e 100 521
e 100 525
e 101 144
e 101 145
e 101 279
e 101 280
e 101 306
e 101 307
e 101 361
e 101 362
e 101 388
e 101 389
e 101 514
e 101 515
e 101 523
e 101 524
e 102 184
e 102 186
e 102 193
e 102 195
e 102 211
e 102 213
e 102 220
e 102 222
e 103 183
e 103 185
e 103 192
e 103 194
e 103 210
e 103 212
e 103 219
e 103 221
e 104 184
e 104 188
e 104 193
e 104 197
e 104 211
e 104 215
e 104 220
e 104 224
e 105 183
e 105 187
e 105 192
e 105 196
e 105 210
e 105 214
e 105 219
e 105 223
e 106 186
e 106 190
e 106 195
e 106 199
e 106 213
e 106 217
e 106 222
e 106 226
e 107 185
e 107 189
e 107 194
e 107 198
e 107 212
e 107 216
e 107 221
e 107 225
e 108 188
e 108 191
e 108 197
e 108 200
e 108 215
e 108 218
e 108 224
e 108 227
e 109 187
e 109 191
e 109 196
e 109 200
e 109 214
e 109 218
e 109 223
e 109 227
e 110 189
e 110 190
e 110 198
e 110 199
e 110 216
e 110 217
e 110 225
e 110 226
e 111 184
e 111 186
e 111 202
e 111 204
e 111 211
e 111 213
e 111 229
e 111 231
e 112 183
e 112 185
e 112 201
e 112 203
e 112 210
e 112 212
e 112 228
e 112 230
e 113 184
e 113 188
e 113 202
e 113 206
e 113 211
e 113 215
e 113 229
e 113 233
e 114 183
e 114 187
e 114 201
e 114 205
e 114 210
e 114 214
e 114 228
e 114 232
e 115 186
e 115 190
e 115 204
e 115 208
e 115 213
e 115 217
e 115 231
e 115 235
e 116 185
e 116 189
e 116 203
e 116 207
e 116 212
e 116 216
e 116 230
e 116 234
e 117 188
e 117 191
e 117 206
e 117 209
e 117 215
e 117 218
e 117 233
e 117 236
e 118 187
e 118 191
e 118 205
e 118 209
e 118 214
e 118 218
e 118 232
e 118 236
e 119 189
e 119 190
e 119 207
e 119 208
e 119 216
e 119 217
e 119 234
e 119 235
e 120 193
e 120 195
e 120 220
e 120 222
e 120 265
e 120 267
e 120 274
e 120 276
e 120 319
e 120 321
e 120 328
e 120 330
e 121 192
e 121 194
e 121 219
e 121 221
e 121 264
e 121 266
e 121 273
e 121 275
e 121 318
e 121 320
e 121 327
e 121 329
e 122 193
e 122 197
e 122 220
e 122 224
e 122 265
e 122 269
e 122 274
e 122 278
e 122 319
e 122 323
e 122 328
e 122 332
e 123 192
e 123 196
e 123 219
e 123 223
e 123 264
e 123 268
e 123 273
e 123 277
e 123 318
e 123 322
e 123 327
e 123 331
e 124 195
e 124 199
e 124 222
e 124 226
e 124 267
e 124 271
e 124 276
e 124 280
e 124 321
e 124 325
e 124 330
e 124 334
e 125 194
e 125 198
e 125 221
e 125 225
e 125 266
e 125 270
e 125 275
e 125 279
e 125 320
e 125 324
e 125 329
e 125 333
e 126 197
e 126 200
e 126 224
e 126 227
e 126 269
e 126 272
e 126 278
e 126 281
e 126 323
e 126 326
e 126 332
e 126 335
e 127 196
e 127 200
e 127 223
e 127 227
e 127 268
e 127 272
e 127 277
e 127 281
e 127 322
e 127 326
e 127 331
e 127 335
e 128 198
e 128 199
e 128 225
e 128 226
e 128 270
e 128 271
e 128 279
e 128 280
e 128 324
e 128 325
e 128 333
e 128 334
e 129 184
e 129 186
e 129 193
e 129 195
e 129 238
e 129 240
e 129 247
e 129 249
e 130 183
e 130 185
e 130 192
e 130 194
e 130 237
e 130 239
e 130 246
e 130 248
e 131 184
e 131 188
e 131 193
e 131 197
e 131 238
e 131 242
e 131 247
e 131 251
e 132 183
e 132 187
e 132 192
e 132 196
e 132 237
e 132 241
e 132 246
e 132 250
e 133 186
e 133 190
e 133 195
e 133 199
e 133 240
e 133 244
e 133 249
e 133 253
e 134 185
e 134 189
e 134 194
e 134 198
e 134 239
e 134 243
e 134 248
e 134 252
e 135 188
e 135 191
e 135 197
e 135 200
e 135 242
e 135 245
e 135 251
e 135 254
e 136 187
e 136 191
e 136 196
e 136 200
e 136 241
e 136 245
e 136 250
e 136 254
e 137 189
e 137 190
e 137 198
e 137 199
e 137 243
e 137 244
e 137 252
e 137 253
e 138 184
e 138 186
e 138 202
e 138 204
e 138 238
e 138 240
e 138 256
e 138 258
e 139 183
e 139 185
e 139 201
e 139 203
e 139 237
e 139 239
e 139 255
e 139 257
e 140 184
e 140 188
e 140 202
e 140 206
e 140 238
e 140 242
e 140 256
e 140 260
e 141 183
e 141 187
e 141 201
e 141 205
e 141 237
e 141 241
e 141 255
e 141 259
e 142 186
e 142 190
e 142 204
e 142 208
e 142 240
e 142 244
e 142 258
e 142 262
e 143 185
e 143 189
e 143 203
e 143 207
e 143 239
e 143 243
e 143 257
e 143 261
e 144 188
e 144 191
e 144 206
e 144 209
e 144 242
e 144 245
e 144 260
e 144 263
e 145 187
e 145 191
e 145 205
e 145 209
e 145 241
e 145 245
e 145 259
e 145 263
e 146 189
e 146 190
e 146 207
e 146 208
e 146 243
e 146 244
e 146 261
e 146 262
e 147 193
e 147 195
e 147 247
e 147 249
e 147 265
e 147 267
e 147 283
e 147 285
e 147 319
e 147 321
e 147 337
e 147 339
e 148 192
e 148 194
e 148 246
e 148 248
e 148 264
e 148 266
e 148 282
e 148 284
e 148 318
e 148 320
e 148 336
e 148 338
e 149 193
e 149 197
e 149 247
e 149 251
e 149 265
e 149 269
e 149 283
e 149 287
e 149 319
e 149 323
e 149 337
e 149 341
e 150 192
e 150 196
e 150 246
e 150 250
e 150 264
e 150 268
e 150 282
e 150 286
e 150 318
e 150 322
e 150 336
e 150 340
e 151 195
e 151 199
e 151 249
e 151 253
e 151 267
e 151 271
e 151 285
e 151 289
e 151 321
e 151 325
e 151 339
e 151 343
e 152 194
e 152 198
e 152 248
e 152 252
e 152 266
e 152 270
e 152 284
e 152 288
e 152 320
e 152 324
e 152 338
e 152 342
e 153 197
e 153 200
e 153 251
e 153 254
e 153 269
e 153 272
e 153 287
e 153 290
e 153 323
e 153 326
e 153 341
e 153 344
e 154 196
e 154 200
e 154 250
e 154 254
e 154 268
e 154 272
e 154 286
e 154 290
e 154 322
e 154 326
e 154 340
e 154 344
e 155 198
e 155 199
e 155 252
e 155 253
e 155 270
e 155 271
e 155 288
e 155 289
e 155 324
e 155 325
e 155 342
e 155 343
e 156 211
e 156 213
e 156 220
e 156 222
e 156 347
e 156 349
e 156 356
e 156 358
e 156 401
e 156 403
e 156 410
e 156 412
e 157 210
e 157 212
e 157 219
e 157 221
e 157 346
e 157 348
e 157 355
e 157 357
e 157 400
e 157 402
e 157 409
e 157 411
e 158 211
e 158 215
e 158 220
e 158 224
e 158 347
e 158 351
e 158 356
e 158 360
e 158 401
e 158 405
e 158 410
e 158 414
e 159 210
e 159 214
e 159 219
e 159 223
e 159 346
e 159 350
e 159 355
e 159 359
e 159 400
e 159 404
e 159 409
e 159 413
e 160 213
e 160 217
e 160 222
e 160 226
e 160 349
e 160 353
e 160 358
e 160 362
e 160 403
e 160 407
e 160 412
e 160 416
e 161 212
e 161 216
e 161 221
e 161 225
e 161 348
e 161 352
e 161 357
e 161 361
e 161 402
e 161 406
e 161 411
e 161 415
e 162 215
e 162 218
e 162 224
e 162 227
e 162 351
e 162 354
e 162 360
e 162 363
e 162 405
e 162 408
e 162 414
e 162 417
e 163 214
e 163 218
e 163 223
e 163 227
e 163 350
e 163 354
e 163 359
e 163 363
e 163 404
e 163 408
e 163 413
e 163 417
e 164 216
e 164 217
e 164 225
e 164 226
e 164 352
e 164 353
e 164 361
e 164 362
e 164 406
e 164 407
e 164 415
e 164 416
e 165 211
e 165 213
e 165 229
e 165 231
e 165 347
e 165 349
e 165 365
e 165 367
e 165 401
e 165 403
e 165 419
e 165 421
e 166 210
e 166 212
e 166 228
e 166 230
e 166 346
e 166 348
e 166 364
e 166 366
e 166 400
e 166 402
e 166 418
e 166 420
e 167 211
e 167 215
e 167 229
e 167 233
e 167 347
e 167 351
e 167 365
e 167 369
e 167 401
e 167 405
e 167 419
e 167 423
e 168 210
e 168 214
e 168 228
e 168 232
e 168 346
e 168 350
e 168 364
e 168 368
e 168 400
e 168 404
e 168 418
e 168 422
e 169 213
e 169 217
e 169 231
e 169 235
e 169 349
e 169 353
e 169 367
e 169 371
e 169 403
e 169 407
e 169 421
e 169 425
e 170 212
e 170 216
e 170 230
e 170 234
e 170 348
e 170 352
e 170 366
e 170 370
e 170 402
e 170 406
e 170 420
e 170 424
e 171 215
e 171 218
e 171 233
e 171 236
e 171 351
e 171 354
e 171 369
e 171 372
e 171 405
e 171 408
e 171 423
e 171 426
e 172 214
e 172 218
e 172 232
e 172 236
e 172 350
e 172 354
e 172 368
e 172 372
e 172 404
e 172 408
e 172 422
e 172 426
e 173 216
e 173 217
e 173 234
e 173 235
e 173 352
e 173 353
e 173 370
e 173 371
e 173 406
e 173 407
e 173 424
e 173 425
e 174 220
e 174 222
e 174 274
e 174 276
e 174 328
e 174 330
e 174 356
e 174 358
e 174 410
e 174 412
e 174 509
e 174 511
e 174 527
e 174 529
e 175 219
e 175 221
e 175 273
e 175 275
e 175 327
e 175 329
e 175 355
e 175 357
e 175 409
e 175 411
e 175 508
e 175 510
e 175 526
e 175 528
e 176 220
e 176 224
e 176 274
e 176 278
e 176 328
e 176 332
e 176 356
e 176 360
e 176 410
e 176 414
e 176 509
e 176 513
e 176 527
e 176 531
e 177 219
e 177 223
e 177 273
e 177 277
e 177 327
e 177 331
e 177 355
e 177 359
e 177 409
e 177 413
e 177 508
e 177 512
e 177 526
e 177 530
e 178 222
e 178 226
e 178 276
e 178 280
e 178 330
e 178 334
e 178 358
e 178 362
e 178 412
e 178 416
e 178 511
e 178 515
e 178 529
e 178 533
e 179 221
e 179 225
e 179 275
e 179 279
e 179 329
e 179 333
e 179 357
e 179 361
e 179 411
e 179 415
e 179 510
e 179 514
e 179 528
e 179 532
e 180 224
e 180 227
e 180 278
e 180 281
e 180 332
e 180 335
e 180 360
e 180 363
e 180 414
e 180 417
e 180 513
e 180 516
e 180 531
e 180 534
e 181 223
e 181 227
e 181 277
e 181 281
e 181 331
e 181 335
e 181 359
e 181 363
e 181 413
e 181 417
e 181 512
e 181 516
e 181 530
e 181 534
e 182 225
e 182 226
e 182 279
e 182 280
e 182 333
e 182 334
e 182 361
e 182 362
e 182 415
e 182 416
e 182 514
e 182 515
e 182 532
e 182 533
e 183 428
e 183 430
e 183 437
e 183 439
e 183 455
e 183 457
e 183 464
e 183 466
e 184 427
e 184 429
e 184 436
e 184 438
e 184 454
e 184 456
e 184 463
e 184 465
e 185 428
e 185 432
e 185 437
e 185 441
e 185 455
e 185 459
e 185 464
e 185 468
e 186 427
e 186 431
e 186 436
e 186 440
e 186 454
e 186 458
e 186 463
e 186 467
e 187 430
e 187 434
e 187 439
e 187 443
e 187 457
e 187 461
e 187 466
e 187 470
e 188 429
e 188 433
e 188 438
e 188 442
e 188 456
e 188 460
e 188 465
e 188 469
e 189 432
e 189 435
e 189 441
e 189 444
e 189 459
e 189 462
e 189 468
e 189 471
e 190 431
e 190 435
e 190 440
e 190 444
e 190 458
e 190 462
e 190 467
e 190 471
e 191 433
e 191 434
e 191 442
e 191 443
e 191 460
e 191 461
e 191 469
e 191 470
e 192 428
e 192 430
e 192 446
e 192 448
e 192 455
e 192 457
e 192 473
e 192 475
e 193 427
e 193 429
e 193 445
e 193 447
e 193 454
e 193 456
e 193 472
e 193 474
e 194 428
e 194 432
e 194 446
e 194 450
e 194 455
e 194 459
e 194 473
e 194 477
e 195 427
e 195 431
e 195 445
e 195 449
e 195 454
e 195 458
e 195 472
e 195 476
e 196 430
e 196 434
e 196 448
e 196 452
e 196 457
e 196 461
e 196 475
e 196 479
e 197 429
e 197 433
e 197 447
e 197 451
e 197 456
e 197 460
e 197 474
e 197 478
e 198 432
e 198 435
e 198 450
e 198 453
e 198 459
e 198 462
e 198 477
e 198 480
e 199 431
e 199 435
e 199 449
e 199 453
e 199 458
e 199 462
e 199 476
e 199 480
e 200 433
e 200 434
e 200 451
e 200 452
e 200 460
e 200 461
e 200 478
e 200 479
e 201 292
e 201 294
e 201 301
e 201 303
e 201 437
e 201 439
e 201 464
e 201 466
e 201 536
e 201 538
e 201 545
e 201 547
e 202 291
e 202 293
e 202 300
e 202 302
e 202 436
e 202 438
e 202 463
e 202 465
e 202 535
e 202 537
e 202 544
e 202 546
e 203 292
e 203 296
e 203 301
e 203 305
e 203 437
e 203 441
e 203 464
e 203 468
e 203 536
e 203 540
e 203 545
e 203 549
e 204 291
e 204 295
e 204 300
e 204 304
e 204 436
e 204 440
e 204 463
e 204 467
e 204 535
e 204 539
e 204 544
e 204 548
e 205 294
e 205 298
e 205 303
e 205 307
e 205 439
e 205 443
e 205 466
e 205 470
e 205 538
e 205 542
e 205 547
e 205 551
e 206 293
e 206 297
e 206 302
e 206 306
e 206 438
e 206 442
e 206 465
e 206 469
e 206 537
e 206 541
e 206 546
e 206 550
e 207 296
e 207 299
e 207 305
e 207 308
e 207 441
e 207 444
e 207 468
e 207 471
e 207 540
e 207 543
e 207 549
e 207 552
e 208 295
e 208 299
e 208 304
e 208 308
e 208 440
e 208 444
e 208 467
e 208 471
e 208 539
e 208 543
e 208 548
e 208 552
e 209 297
e 209 298
e 209 306
e 209 307
e 209 442
e 209 443
e 209 469
e 209 470
e 209 541
e 209 542
e 209 550
e 209 551
e 210 428
e 210 430
e 210 437
e 210 439
e 210 482
e 210 484
e 210 491
e 210 493
e 211 427
e 211 429
e 211 436
e 211 438
e 211 481
e 211 483
e 211 490
e 211 492
e 212 428
e 212 432
e 212 437
e 212 441
e 212 482
e 212 486
e 212 491
e 212 495
e 213 427
e 213 431
e 213 436
e 213 440
e 213 481
e 213 485
e 213 490
e 213 494
e 214 430
e 214 434
e 214 439
e 214 443
e 214 484
e 214 488
e 214 493
e 214 497
e 215 429
e 215 433
e 215 438
e 215 442
e 215 483
e 215 487
e 215 492
e 215 496
e 216 432
e 216 435
e 216 441
e 216 444
e 216 486
e 216 489
e 216 495
e 216 498
e 217 431
e 217 435
e 217 440
e 217 444
e 217 485
e 217 489
e 217 494
e 217 498
e 218 433
e 218 434
e 218 442
e 218 443
e 218 487
e 218 488
e 218 496
e 218 497
e 219 428
e 219 430
e 219 446
e 219 448
e 219 482
e 219 484
e 219 500
e 219 502
e 220 427
e 220 429
e 220 445
e 220 447
e 220 481
e 220 483
e 220 499
e 220 501
e 221 428
e 221 432
e 221 446
e 221 450
e 221 482
e 221 486
e 221 500
e 221 504
e 222 427
e 222 431
e 222 445
e 222 449
e 222 481
e 222 485
e 222 499
e 222 503
e 223 430
e 223 434
e 223 448
e 223 452
e 223 484
e 223 488
e 223 502
e 223 506
e 224 429
e 224 433
e 224 447
e 224 451
e 224 483
e 224 487
e 224 501
e 224 505
e 225 432
e 225 435
e 225 450
e 225 453
e 225 486
e 225 489
e 225 504
e 225 507
e 226 431
e 226 435
e 226 449
e 226 453
e 226 485
e 226 489
e 226 503
e 226 507
e 227 433
e 227 434
e 227 451
e 227 452
e 227 487
e 227 488
e 227 505
e 227 506
e 228 292
e 228 294
e 228 310
e 228 312
e 228 437
e 228 439
e 228 491
e 228 493
e 228 536
e 228 538
e 228 554
e 228 556
e 229 291
e 229 293
e 229 309
e 229 311
e 229 436
e 229 438
e 229 490
e 229 492
e 229 535
e 229 537
e 229 553
e 229 555
e 230 292
e 230 296
e 230 310
e 230 314
e 230 437
e 230 441
e 230 491
e 230 495
e 230 536
e 230 540
e 230 554
e 230 558
e 231 291
e 231 295
e 231 309
e 231 313
e 231 436
e 231 440
e 231 490
e 231 494
e 231 535
e 231 539
e 231 553
e 231 557
e 232 294
e 232 298
e 232 312
e 232 316
e 232 439
e 232 443
e 232 493
e 232 497
e 232 538
e 232 542
e 232 556
e 232 560
e 233 293
e 233 297
e 233 311
e 233 315
e 233 438
e 233 442
e 233 492
e 233 496
e 233 537
e 233 541
e 233 555
e 233 559
e 234 296
e 234 299
e 234 314
e 234 317
e 234 441
e 234 444
e 234 495
e 234 498
e 234 540
e 234 543
e 234 558
e 234 561
e 235 295
e 235 299
e 235 313
e 235 317
e 235 440
e 235 444
e 235 494
e 235 498
e 235 539
e 235 543
e 235 557
e 235 561
e 236 297
e 236 298
e 236 315
e 236 316
e 236 442
e 236 443
e 236 496
e 236 497
e 236 541
e 236 542
e 236 559
e 236 560
e 237 374
e 237 376
e 237 383
e 237 385
e 237 455
e 237 457
e 237 464
e 237 466
e 237 563
e 237 565
e 237 572
e 237 574
e 238 373
e 238 375
e 238 382
e 238 384
e 238 454
e 238 456
e 238 463
e 238 465
e 238 562
e 238 564
e 238 571
e 238 573
e 239 374
e 239 378
e 239 383
e 239 387
e 239 455
e 239 459
e 239 464
e 239 468
e 239 563
e 239 567
e 239 572
e 239 576
e 240 373
e 240 377
e 240 382
e 240 386
e 240 454
e 240 458
e 240 463
e 240 467
e 240 562
e 240 566
e 240 571
e 240 575
e 241 376
e 241 380
e 241 385
e 241 389
e 241 457
e 241 461
e 241 466
e 241 470
e 241 565
e 241 569
e 241 574
e 241 578
e 242 375
e 242 379
e 242 384
e 242 388
e 242 456
e 242 460
e 242 465
e 242 469
e 242 564
e 242 568
e 242 573
e 242 577
e 243 378
e 243 381
e 243 387
e 243 390
e 243 459
e 243 462
e 243 468
e 243 471
e 243 567
e 243 570
e 243 576
e 243 579
e 244 377
e 244 381
e 244 386
e 244 390
e 244 458
e 244 462
e 244 467
e 244 471
e 244 566
e 244 570
e 244 575
e 244 579
e 245 379
e 245 380
e 245 388
e 245 389
e 245 460
e 245 461
e 245 469
e 245 470
e 245 568
e 245 569
e 245 577
e 245 578
e 246 374
e 246 376
e 246 392
e 246 394
e 246 455
e 246 457
e 246 473
e 246 475
e 246 563
e 246 565
e 246 581
e 246 583
e 247 373
e 247 375
e 247 391
e 247 393
e 247 454
e 247 456
e 247 472
e 247 474
e 247 562
e 247 564
e 247 580
e 247 582
e 248 374
e 248 378
e 248 392
e 248 396
e 248 455
e 248 459
e 248 473
e 248 477
e 248 563
e 248 567
e 248 581
e 248 585
e 249 373
e 249 377
e 249 391
e 249 395
e 249 454
e 249 458
e 249 472
e 249 476
e 249 562
e 249 566
e 249 580
e 249 584
e 250 376
e 250 380
e 250 394
e 250 398
e 250 457
e 250 461
e 250 475
e 250 479
e 250 565
e 250 569
e 250 583
e 250 587
e 251 375
e 251 379
e 251 393
e 251 397
e 251 456
e 251 460
e 251 474
e 251 478
e 251 564
e 251 568
e 251 582
e 251 586
e 252 378
e 252 381
e 252 396
e 252 399
e 252 459
e 252 462
e 252 477
e 252 480
e 252 567
e 252 570
e 252 585
e 252 588
e 253 377
e 253 381
e 253 395
e 253 399
e 253 458
e 253 462
e 253 476
e 253 480
e 253 566
e 253 570
e 253 584
e 253 588
e 254 379
e 254 380
e 254 397
e 254 398
e 254 460
e 254 461
e 254 478
e 254 479
e 254 568
e 254 569
e 254 586
e 254 587
e 255 301
e 255 303
e 255 383
e 255 385
e 255 464
e 255 466
e 255 518
e 255 520
e 255 545
e 255 547
e 255 572
e 255 574
e 255 590
e 255 592
e 256 300
e 256 302
e 256 382
e 256 384
e 256 463
e 256 465
e 256 517
e 256 519
e 256 544
e 256 546
e 256 571
e 256 573
e 256 589
e 256 591
e 257 301
e 257 305
e 257 383
e 257 387
e 257 464
e 257 468
e 257 518
e 257 522
e 257 545
e 257 549
e 257 572
e 257 576
e 257 590
e 257 594
e 258 300
e 258 304
e 258 382
e 258 386
e 258 463
e 258 467
e 258 517
e 258 521
e 258 544
e 258 548
e 258 571
e 258 575
e 258 589
e 258 593
e 259 303
e 259 307
e 259 385
e 259 389
e 259 466
e 259 470
e 259 520
e 259 524
e 259 547
e 259 551
e 259 574
e 259 578
e 259 592
e 259 596
e 260 302
e 260 306
e 260 384
e 260 388
e 260 465
e 260 469
e 260 519
e 260 523
e 260 546
e 260 550
e 260 573
e 260 577
e 260 591
e 260 595
e 261 305
e 261 308
e 261 387
e 261 390
e 261 468
e 261 471
e 261 522
e 261 525
e 261 549
e 261 552
e 261 576
e 261 579
e 261 594
e 261 597
e 262 304
e 262 308
e 262 386
e 262 390
e 262 467
e 262 471
e 262 521
e 262 525
e 262 548
e 262 552
e 262 575
e 262 579
e 262 593
e 262 597
e 263 306
e 263 307
e 263 388
e 263 389
e 263 469
e 263 470
e 263 523
e 263 524
e 263 550
e 263 551
e 263 577
e 263 578
e 263 595
e 263 596
e 282 365
e 282 367
e 282 392
e 282 394
e 283 364
e 283 366
e 283 391
e 283 393
e 284 365
e 284 369
e 284 392
e 284 396
e 285 364
e 285 368
e 285 391
e 285 395
e 286 367
e 286 371
e 286 394
e 286 398
e 287 366
e 287 370
e 287 393
e 287 397
e 288 369
e 288 372
e 288 396
e 288 399
e 289 368
e 289 372
e 289 395
e 289 399
e 290 370
e 290 371
e 290 397
e 290 398
e 309 365
e 309 367
e 309 419
e 309 421
e 310 364
e 310 366
e 310 418
e 310 420
e 311 365
e 311 369
e 311 419
e 311 423
e 312 364
e 312 368
e 312 418
e 312 422
e 313 367
e 313 371
e 313 421
e 313 425
e 314 366
e 314 370
e 314 420
e 314 424
e 315 369
e 315 372
e 315 423
e 315 426
e 316 368
e 316 372
e 316 422
e 316 426
e 317 370
e 317 371
e 317 424
e 317 425
e 318 446
e 318 448
e 318 473
e 318 475
e 319 445
e 319 447
e 319 472
e 319 474
e 320 446
e 320 450
e 320 473
e 320 477
e 321 445
e 321 449
e 321 472
e 321 476
e 322 448
e 322 452
e 322 475
e 322 479
e 323 447
e 323 451
e 323 474
e 323 478
e 324 450
e 324 453
e 324 477
e 324 480
e 325 449
e 325 453
e 325 476
e 325 480
e 326 451
e 326 452
e 326 478
e 326 479
e 327 446
e 327 448
e 327 500
e 327 502
e 328 445
e 328 447
e 328 499
e 328 501
e 329 446
e 329 450
e 329 500
e 329 504
e 330 445
e 330 449
e 330 499
e 330 503
e 331 448
e 331 452
e 331 502
e 331 506
e 332 447
e 332 451
e 332 501
e 332 505
e 333 450
e 333 453
e 333 504
e 333 507
e 334 449
e 334 453
e 334 503
e 334 507
e 335 451
e 335 452
e 335 505
e 335 506
e 336 345
e 336 392
e 336 394
e 336 473
e 336 475
e 336 581
e 336 583
e 337 345
e 337 391
e 337 393
e 337 472
e 337 474
e 337 580
e 337 582
e 338 345
e 338 392
e 338 396
e 338 473
e 338 477
e 338 581
e 338 585
e 339 345
e 339 391
e 339 395
e 339 472
e 339 476
e 339 580
e 339 584
e 340 345
e 340 394
e 340 398
e 340 475
e 340 479
e 340 583
e 340 587
e 341 345
e 341 393
e 341 397
e 341 474
e 341 478
e 341 582
e 341 586
e 342 345
e 342 396
e 342 399
e 342 477
e 342 480
e 342 585
e 342 588
e 343 345
e 343 395
e 343 399
e 343 476
e 343 480
e 343 584
e 343 588
e 344 345
e 344 397
e 344 398
e 344 478
e 344 479
e 344 586
e 344 587
e 400 482
e 400 484
e 400 491
e 400 493
e 401 481
e 401 483
e 401 490
e 401 492
e 402 482
e 402 486
e 402 491
e 402 495
e 403 481
e 403 485
e 403 490
e 403 494
e 404 484
e 404 488
e 404 493
e 404 497
e 405 483
e 405 487
e 405 492
e 405 496
e 406 486
e 406 489
e 406 495
e 406 498
e 407 485
e 407 489
e 407 494
e 407 498
e 408 487
e 408 488
e 408 496
e 408 497
e 409 482
e 409 484
e 409 500
e 409 502
e 410 481
e 410 483
e 410 499
e 410 501
e 411 482
e 411 486
e 411 500
e 411 504
e 412 481
e 412 485
e 412 499
e 412 503
e 413 484
e 413 488
e 413 502
e 413 506
e 414 483
e 414 487
e 414 501
e 414 505
e 415 486
e 415 489
e 415 504
e 415 507
e 416 485
e 416 489
e 416 503
e 416 507
e 417 487
e 417 488
e 417 505
e 417 506
e 418 491
e 418 493
e 418 554
e 418 556
e 419 490
e 419 492
e 419 553
e 419 555
e 420 491
e 420 495
e 420 554
e 420 558
e 421 490
e 421 494
e 421 553
e 421 557
e 422 493
e 422 497
e 422 556
e 422 560
e 423 492
e 423 496
e 423 555
e 423 559
e 424 495
e 424 498
e 424 558
e 424 561
e 425 494
e 425 498
e 425 557
e 425 561
e 426 496
e 426 497
e 426 559
e 426 560
e 499 527
e 499 529
e 500 526
e 500 528
e 501 527
e 501 531
e 502 526
e 502 530
e 503 529
e 503 533
e 504 528
e 504 532
e 505 531
e 505 534
e 506 530
e 506 534
e 507 532
e 507 533
